p cnf 10 50
2 -5 8 0
-7 -3 4 0
9 6 3 0
-1 -5 7 0
-1 6 7 0
-7 6 -9 0
1 9 4 0
8 -7 10 0
-7 -1 4 0
6 7 -8 0
-3 4 7 0
-1 8 -6 0
10 -8 -3 0
-8 4 -3 0
2 -5 -4 0
4 10 -5 0
10 8 2 0
9 4 -2 0
4 -1 -10 0
5 6 7 0
-5 -8 7 0
9 3 8 0
-6 -4 -10 0
9 4 3 0
-1 -6 2 0
-10 -3 8 0
5 9 -3 0
-5 -3 -1 0
-8 -1 10 0
5 2 -1 0
4 3 10 0
-10 -1 2 0
-6 -7 -8 0
-3 10 1 0
-5 -10 3 0
8 -4 -6 0
-8 -3 -4 0
8 -10 7 0
-3 2 5 0
7 -4 5 0
-3 7 -4 0
-5 1 6 0
8 -10 1 0
2 6 -5 0
4 9 5 0
-1 8 10 0
8 5 3 0
2 -5 -10 0
-4 -2 -9 0
3 -8 -10 0
